
  22    4
  10   10   10   10

   0   0   0   0   0   8 2 3 4 5 6 7 8 12 
   6  10  10  10  10   5 15 13 11 10 9 
   4  10  10  10  10   4 17 15 13 9 
   1  10  10  10  10   3 13 11 10 
   9  10  10  10  10   4 17 16 15 13 
   5  10  10  10  10   3 17 13 10 
   8  10  10  10  10   4 18 15 14 13 
   7  10  10  10  10   3 17 16 14 
   2  10  10  10  10   2 16 14 
  10  10  10  10  10   3 21 20 16 
   7  10  10  10  10   3 20 17 16 
  10  10  10  10  10   3 21 20 18 
   4  10  10  10  10   3 21 20 19 
   4  10  10  10  10   3 21 20 19 
   9  10  10  10  10   3 21 20 19 
   8  10  10  10  10   1 18 
   8  10  10  10  10   1 18 
  10  10  10  10  10   1 19 
   2  10  10  10  10   1 22
  10  10  10  10  10   1 22
   9  10  10  10  10   1 22
   0   0   0   0   0   0 
